7	7	7	4	4	7	7	7
7	7	4	5	4	4	7	7
7	7	4	5	5	4	7	7
7	7	7	4	4	7	7	7
7	7	7	5	5	7	7	7
7	7	4	4	4	4	7	7
7	4	7	4	4	7	4	7
7	4	7	4	4	7	4	7
4	7	7	4	4	7	7	4
7	7	3	6	6	3	7	7
7	7	3	6	6	3	7	7
7	7	3	6	6	3	7	7
7	7	3	6	6	3	7	7
7	7	3	3	6	3	3	7